
Log started (V12.10.0.0) Sun Apr  4 08:55:55 2021


Problem 'asset.lp' read.
Read time = 0.00 sec. (0.22 ticks)
New value for default parallel thread count: 1
New value for time limit in seconds: 300
Version identifier: 12.10.0.0 | 2019-11-26 | 843d4de
CPXPARAM_Threads                                 1
CPXPARAM_TimeLimit                               300
Found incumbent of value -0.884482 after 0.00 sec. (0.10 ticks)
Tried aggregator 3 times.
MIP Presolve eliminated 573 rows and 296 columns.
MIP Presolve modified 1746 coefficients.
Aggregator did 643 substitutions.
Reduced MIP has 846 rows, 913 columns, and 4019 nonzeros.
Reduced MIP has 790 binaries, 82 generals, 0 SOSs, and 0 indicators.
Presolve time = 0.01 sec. (6.85 ticks)
Probing fixed 142 vars, tightened 9 bounds.
Probing time = 0.01 sec. (3.26 ticks)
Cover probing fixed 0 vars, tightened 74 bounds.
Tried aggregator 1 time.
MIP Presolve eliminated 171 rows and 165 columns.
MIP Presolve modified 294 coefficients.
Reduced MIP has 675 rows, 743 columns, and 2992 nonzeros.
Reduced MIP has 634 binaries, 68 generals, 0 SOSs, and 0 indicators.
Presolve time = 0.00 sec. (2.90 ticks)
Probing time = 0.00 sec. (2.23 ticks)
Tried aggregator 1 time.
Detecting symmetries...
MIP Presolve modified 46 coefficients.
Reduced MIP has 675 rows, 743 columns, and 2992 nonzeros.
Reduced MIP has 634 binaries, 68 generals, 0 SOSs, and 0 indicators.
Presolve time = 0.00 sec. (2.10 ticks)
Probing time = 0.00 sec. (2.25 ticks)
Clique table members: 2135.
MIP emphasis: balance optimality and feasibility.
MIP search method: dynamic search.
Parallel mode: none, using 1 thread.
Root relaxation solution time = 0.01 sec. (8.63 ticks)

        Nodes                                         Cuts/
   Node  Left     Objective  IInf  Best Integer    Best Bound    ItCnt     Gap

*     0+    0                           -0.8845      456.3255              --- 
      0     0      350.1007   193       -0.8845      350.1007      465     --- 
      0     0      336.8590   193       -0.8845     Cuts: 268      818     --- 
      0     0      336.2658   193       -0.8845     Cuts: 268     1014     --- 
      0     0      336.0265   193       -0.8845     Cuts: 185     1149     --- 
      0     0      335.8810   193       -0.8845     Cuts: 175     1281     --- 
      0     0      335.3127   193       -0.8845     Cuts: 172     1469     --- 
Detecting symmetries...
      0     0      334.2605   193       -0.8845     Cuts: 149     1612     --- 
      0     0      333.2637   193       -0.8845     Cuts: 185     1703     --- 
      0     0      332.8237   193       -0.8845     Cuts: 138     1850     --- 
      0     0      330.6904   193       -0.8845     Cuts: 194     2110     --- 
      0     0      330.5883   193       -0.8845     Cuts: 186     2272     --- 
*     0+    0                           18.2538      330.5883              --- 
*     0+    0                           68.2677      330.5883           384.25%
      0     0        cutoff             68.2677      330.5883     2272  384.25%
      0     0      330.5468   193       68.2677     Cuts: 130     2376  384.19%
      0     0      330.5277   193       68.2677     Cuts: 109     2465  384.16%
      0     0      330.4880   193       68.2677      Cuts: 66     2550  384.11%
*     0+    0                           74.8352      330.4880           341.62%
*     0+    0                           74.8353      330.4880           341.62%
*     0+    0                          101.0821      330.4880           226.95%
*     0+    0                          159.9348      330.4880           106.64%
      0     0        cutoff            159.9348      330.4880     2550  106.64%
Detecting symmetries...
      0     2      330.4880   178      159.9348      330.4855     2550  106.64%
Elapsed time = 0.35 sec. (372.24 ticks, tree = 0.01 MB, solutions = 6)
*   120+  115                          264.0971      330.3569            25.09%
*   126   118      integral     0      264.4455      330.3569     7079   24.92%
*   226+  201                          264.4458      330.3553            24.92%
    230   207      328.4475   152      264.4458      330.3553    11076   24.92%
    406   376      321.6256   141      264.4458      330.3551    15990   24.92%

Performing restart 1

Repeating presolve.
Tried aggregator 1 time.
MIP Presolve eliminated 4 rows and 3 columns.
MIP Presolve modified 457 coefficients.
Reduced MIP has 671 rows, 740 columns, and 2601 nonzeros.
Reduced MIP has 631 binaries, 68 generals, 0 SOSs, and 0 indicators.
Presolve time = 0.00 sec. (3.72 ticks)
Tried aggregator 1 time.
Reduced MIP has 671 rows, 740 columns, and 2601 nonzeros.
Reduced MIP has 631 binaries, 68 generals, 0 SOSs, and 0 indicators.
Presolve time = 0.00 sec. (2.01 ticks)
Represolve time = 0.02 sec. (14.45 ticks)
    512     0      326.7304   166      264.4458     Cuts: 222    20426   23.55%
    512     0      325.6169   166      264.4458     Cuts: 138    20606   23.13%
    512     0      324.0740   166      264.4458     Cuts: 141    21124   22.55%
    512     0      323.4905   166      264.4458     Cuts: 121    21342   22.33%
    512     0      323.2449   166      264.4458     Cuts: 123    21475   22.23%
*   512+    0                          264.4461      323.2449            22.23%
    512     0        cutoff            264.4461      323.2449    21475   22.23%
    512     0      323.1579   166      264.4461      Cuts: 64    21531   22.20%
    512     0      323.0641   166      264.4461      Cuts: 79    21619   22.17%
    512     0      323.0068   166      264.4461      Cuts: 86    21712   22.14%
    512     0      322.8750   166      264.4461      Cuts: 93    21856   22.09%
    512     0      322.6162   166      264.4461     Cuts: 111    22136   22.00%
    512     0      322.5739   166      264.4461      Cuts: 67    22192   21.98%
    512     0      322.4108   166      264.4461      Cuts: 43    22278   21.92%
    512     0      322.4092   166      264.4461      Cuts: 43    22326   21.92%
    512     0      322.4090   166      264.4461      Cuts: 21    22356   21.92%
    512     0      322.4062   166      264.4461      Cuts: 21    22381   21.92%
    512     0      322.3976   166      264.4461      Cuts: 57    22421   21.91%
*   512+    0                          289.4466      322.3976            11.38%
*   512+    0                          289.4467      322.3976            11.38%
*   512+    0                          289.4483      322.3976            11.38%
*   512+    0                          289.4486      322.3976            11.38%
*   512+    0                          289.4493      322.3976            11.38%
    512     0        cutoff            289.4493      322.3976    22421   11.38%
    512     2      322.3976   200      289.4493      322.3641    22421   11.37%
    516     6      320.8770   158      289.4493      320.8770    22998   10.86%
    522    12      316.2542    92      289.4493      320.7086    23585   10.80%
    536    26      306.3850   132      289.4493      320.7086    24233   10.80%
    589    72      303.7991    81      289.4493      320.3480    26804   10.68%
    653   118      312.2834   137      289.4493      319.2398    29416   10.29%
*   692+  148                          289.5064      319.0796            10.22%
*   692+  148                          289.5073      319.0796            10.21%
*   702+  156                          289.5074      319.0796            10.21%
*   722+  159                          290.4866      319.0222             9.82%
*   732+  167                          290.4879      319.0222             9.82%
    886   284      308.9978   145      290.4879      317.0608    40052    9.15%
Elapsed time = 4.43 sec. (5145.30 ticks, tree = 0.25 MB, solutions = 20)
*   912+  250                          296.4455      317.0597             6.95%
*  1012+  323                          296.4467      316.7424             6.85%
*  1032+  321                          298.2043      316.7424             6.22%
*  1032+  321                          298.2049      316.7424             6.22%
*  1042+  329                          298.2057      316.7424             6.22%
   1130   381      306.6455   135      298.2057      315.8429    52499    5.91%
*  1142+  391                          298.2058      315.8429             5.91%
*  1182+  381                          299.9759      315.5449             5.19%
   1373   493      312.8893   128      299.9759      314.8206    64137    4.95%
*  1512+  560                          299.9771      314.3008             4.77%
   1578   612      307.4888   107      299.9771      314.2419    76120    4.76%
*  1612+  619                          299.9772      314.1559             4.73%
   1758   688      312.5811   171      299.9772      313.5185    87395    4.51%
   1923   749      304.2130   128      299.9772      312.9685   100692    4.33%
*  2152+  795                          300.4865      312.4416             3.98%
   2181   809        cutoff            300.4865      312.3772   113933    3.96%
*  2252+  832                          300.4866      312.1241             3.87%
*  2352+  840                          301.6545      311.8605             3.38%
*  2354   842      integral     0      301.6552      311.8605   124814    3.38%
   2383   834      307.2417   124      301.6552      311.6486   127426    3.31%
*  2454+  852                          301.6554      311.4601             3.25%
*  2462+  860                          301.6556      311.4601             3.25%
*  2562+  896                          301.6563      311.2988             3.20%
   2563   897      307.2348   107      301.6563      311.2725   138971    3.19%
   2733   909      307.5487   146      301.6563      310.6868   152022    2.99%
   2908   935      302.0048   148      301.6563      310.1762   164794    2.82%
Elapsed time = 12.49 sec. (14769.63 ticks, tree = 0.67 MB, solutions = 36)
   3090   932      304.3789   100      301.6563      309.6095   178217    2.64%
   3319   969        cutoff            301.6563      308.9955   193201    2.43%
   3554   988      303.5010    95      301.6563      308.5376   208001    2.28%
*  3672+  994                          301.6565      308.2715             2.19%
   3740   982      303.7347   133      301.6565      307.9961   216955    2.10%
*  3772+  957                          301.6570      307.8270             2.05%
   3943   909        cutoff            301.6570      307.3958   229531    1.90%
   4220   888        cutoff            301.6570      306.8389   242716    1.72%
   4490   821      301.6606    53      301.6570      306.0973   255467    1.47%
   4824   702      302.2109    97      301.6570      305.1501   269167    1.16%
*  4949   694      integral     0      301.6574      304.9294   271690    1.08%
*  5041   658      integral     0      301.6578      304.6523   274253    0.99%
   5355   547      301.6608    58      301.6578      303.3400   283009    0.56%

GUB cover cuts applied:  17
Clique cuts applied:  90
Cover cuts applied:  4
Implied bound cuts applied:  79
Flow cuts applied:  14
Mixed integer rounding cuts applied:  93
Zero-half cuts applied:  30
Lift and project cuts applied:  33
Gomory fractional cuts applied:  9

Root node processing (before b&c):
  Real time             =    0.35 sec. (372.78 ticks)
Sequential b&c:
  Real time             =   19.74 sec. (23254.50 ticks)
                          ------------
Total (root+branch&cut) =   20.09 sec. (23627.28 ticks)

Solution pool: 41 solutions saved.

MIP - Integer optimal, tolerance (0.0001/1e-06):  Objective =  3.0165776262e+02
Current MIP best bound =  3.0168329932e+02 (gap = 0.0255367, 0.01%)
Solution time =   20.09 sec.  Iterations = 285981  Nodes = 5528 (404)
Deterministic time = 23627.28 ticks  (1176.10 ticks/sec)


Incumbent solution
Variable Name           Solution Value
F                           335.000000
f1                            0.922237
f2                           32.420000
y69                           1.000000
y167                          1.000000
y80                           1.000000
y190                          1.000000
y5                            1.000000
y253                          1.000000
y181                          1.000000
y214                          1.000000
y241                          1.000000
y126                          1.000000
y35                           1.000000
y77                           1.000000
y133                          1.000000
y235                          1.000000
y11                           1.000000
y107                          1.000000
y121                          1.000000
y171                          1.000000
y15                           1.000000
y117                          1.000000
s25                           6.000000
s46                           6.000000
s69                           6.160652
s84                           6.000000
s104                          6.000000
s108                          6.000000
s109                          6.000000
s119                          6.000000
s159                          6.000000
s167                          6.347701
s189                          6.000000
s191                          6.000000
s202                          6.000000
s212                          6.000000
s134                          6.010000
s115                          6.020000
s2                            6.030000
s257                          6.060000
s80                           6.591186
s190                          6.362878
s232                          6.180000
s92                           6.270000
s5                            6.531101
s225                          6.380000
s253                          7.016226
s181                          7.409975
s214                          6.470000
s241                          7.140863
s67                           6.480000
s122                          6.570000
s126                          7.576398
s144                          6.610000
s35                           7.563695
s77                           7.692810
s208                          6.750000
s133                          7.558520
s235                          6.994489
s11                           7.369255
s107                          7.743502
s121                          7.716177
s171                          7.562878
s55                           6.850000
s93                           6.940000
s15                           7.762195
s117                          7.738197
x33x121x1                     1.000000
x160x5x1                      1.000000
x209x35x1                     1.000000
x209x77x1                     1.000000
x29x181x1                     1.000000
x177x235x1                    1.000000
x47x235x1                     1.000000
x183x241x1                    2.000000
x29x11x2                      1.000000
x177x253x2                    1.000000
x193x11x2                     1.000000
x111x35x2                     1.000000
x111x171x2                    1.000000
x40x214x2                     2.000000
x173x80x2                     1.000000
x163x80x2                     1.000000
x140x69x2                     2.000000
x33x121x3                     1.000000
x160x5x3                      1.000000
x49x190x3                     2.000000
x47x253x3                     1.000000
x193x181x3                    1.000000
x173x167x3                    1.000000
x163x167x3                    1.000000
x69x126x2                     2.000000
x167x133x3                    2.000000
x80x107x2                     1.000000
x80x117x2                     1.000000
x190x171x3                    1.000000
x190x15x3                     1.000000
x5x107x1                      1.000000
x5x117x3                      1.000000
x253x0x2                      1.000000
x253x0x3                      1.000000
x181x0x1                      1.000000
x181x0x3                      1.000000
x214x77x2                     1.000000
x214x15x2                     1.000000
x241x0x1                      2.000000
x126x0x2                      2.000000
x35x0x1                       1.000000
x35x0x2                       1.000000
x77x0x1                       1.000000
x77x0x2                       1.000000
x133x0x3                      2.000000
x235x0x1                      2.000000
x11x0x2                       2.000000
x107x0x1                      1.000000
x107x0x2                      1.000000
x121x0x1                      1.000000
x121x0x3                      1.000000
x171x0x2                      1.000000
x171x0x3                      1.000000
x15x0x2                       1.000000
x15x0x3                       1.000000
x117x0x2                      1.000000
x117x0x3                      1.000000
s33                           5.348845
z33z121z1                     1.000000
z33z121z3                     1.000000
s160                          4.986892
z160z5z1                      1.000000
z160z5z3                      1.000000
z160z133z3                    1.000000
z160z235z1                    1.000000
s209                          5.294673
z209z35z1                     1.000000
z209z77z1                     1.000000
s49                           4.823256
z49z167z3                     1.000000
z49z190z3                     1.000000
z49z133z3                     1.000000
s29                           5.888496
z29z181z1                     1.000000
z29z11z2                      1.000000
s177                          5.501187
z177z253z2                    1.000000
z177z235z1                    1.000000
s47                           5.545166
z47z253z3                     1.000000
z47z235z1                     1.000000
s193                          5.998661
z193z181z3                    1.000000
z193z11z2                     1.000000
s111                          5.720071
z111z126z2                    1.000000
z111z35z2                     1.000000
z111z11z2                     1.000000
z111z171z2                    1.000000
s183                          5.780000
z183z241z1                    1.000000
s40                           4.702890
z40z69z2                      1.000000
z40z225z2                     1.000000
z40z214z2                     1.000000
z40z122z2                     1.000000
z40z126z2                     1.000000
z40z11z2                      1.000000
s173                          4.827850
z173z167z3                    1.000000
z173z80z2                     1.000000
z173z122z2                    1.000000
z173z133z3                    1.000000
z173z11z2                     1.000000
s163                          4.787880
z163z167z3                    1.000000
z163z80z2                     1.000000
z163z122z2                    1.000000
z163z133z3                    1.000000
z163z11z2                     1.000000
s140                          4.829830
z140z69z2                     1.000000
z140z80z2                     1.000000
z140z122z2                    1.000000
z140z126z2                    1.000000
z140z11z2                     1.000000
z69z126z2                     1.000000
z167z133z3                    1.000000
z80z107z2                     1.000000
z80z117z2                     1.000000
z190z171z3                    1.000000
z190z15z3                     1.000000
z5z107z1                      1.000000
z5z117z3                      1.000000
z214z77z2                     1.000000
z214z15z2                     1.000000
All other variables in the range 1-1854 are 0.
